NAME          
ROWS
 N  OBJ
 L  c1
COLUMNS
    MARKER    'MARKER'                 'INTORG'
    x[1]      c1        1006
    x[1]      OBJ       -915
    x[2]      c1        849
    x[2]      OBJ       -753
    x[3]      c1        822
    x[3]      OBJ       -745
    x[4]      c1        860
    x[4]      OBJ       -762
    x[5]      c1        898
    x[5]      OBJ       -878
    x[6]      c1        277
    x[6]      OBJ       -351
    x[7]      c1        98
    x[7]      OBJ       -89
    x[8]      c1        509
    x[8]      OBJ       -461
    x[9]      c1        637
    x[9]      OBJ       -680
    x[10]     c1        704
    x[10]     OBJ       -761
    x[11]     c1        311
    x[11]     OBJ       -289
    x[12]     c1        709
    x[12]     OBJ       -801
    x[13]     c1        895
    x[13]     OBJ       -949
    x[14]     c1        375
    x[14]     OBJ       -296
    x[15]     c1        477
    x[15]     OBJ       -526
    x[16]     c1        962
    x[16]     OBJ       -976
    x[17]     c1        162
    x[17]     OBJ       -239
    x[18]     c1        315
    x[18]     OBJ       -290
    x[19]     c1        805
    x[19]     OBJ       -768
    x[20]     c1        276
    x[20]     OBJ       -321
    x[21]     c1        282
    x[21]     OBJ       -382
    x[22]     c1        881
    x[22]     OBJ       -974
    x[23]     c1        798
    x[23]     OBJ       -810
    x[24]     c1        964
    x[24]     OBJ       -867
    x[25]     c1        1008
    x[25]     OBJ       -942
    x[26]     c1        868
    x[26]     OBJ       -936
    x[27]     c1        95
    x[27]     OBJ       -122
    x[28]     c1        -89
    x[28]     OBJ       -8
    x[29]     c1        40
    x[29]     OBJ       -84
    x[30]     c1        274
    x[30]     OBJ       -289
    x[31]     c1        871
    x[31]     OBJ       -963
    x[32]     c1        491
    x[32]     OBJ       -414
    x[33]     c1        360
    x[33]     OBJ       -445
    x[34]     c1        725
    x[34]     OBJ       -817
    x[35]     c1        362
    x[35]     OBJ       -364
    x[36]     c1        910
    x[36]     OBJ       -847
    x[37]     c1        620
    x[37]     OBJ       -673
    x[38]     c1        238
    x[38]     OBJ       -143
    x[39]     c1        522
    x[39]     OBJ       -440
    x[40]     c1        901
    x[40]     OBJ       -886
    x[41]     c1        812
    x[41]     OBJ       -808
    x[42]     c1        762
    x[42]     OBJ       -786
    x[43]     c1        569
    x[43]     OBJ       -613
    x[44]     c1        665
    x[44]     OBJ       -702
    x[45]     c1        669
    x[45]     OBJ       -625
    x[46]     c1        248
    x[46]     OBJ       -168
    x[47]     c1        356
    x[47]     OBJ       -424
    x[48]     c1        833
    x[48]     OBJ       -793
    x[49]     c1        204
    x[49]     OBJ       -136
    x[50]     c1        1093
    x[50]     OBJ       -995
RHS
    rhs       c1        14640
RANGES
BOUNDS
 LO bounds    x[1]      0
 PL bounds    x[1]
 LO bounds    x[2]      0
 PL bounds    x[2]
 LO bounds    x[3]      0
 PL bounds    x[3]
 LO bounds    x[4]      0
 PL bounds    x[4]
 LO bounds    x[5]      0
 PL bounds    x[5]
 LO bounds    x[6]      0
 PL bounds    x[6]
 LO bounds    x[7]      0
 PL bounds    x[7]
 LO bounds    x[8]      0
 PL bounds    x[8]
 LO bounds    x[9]      0
 PL bounds    x[9]
 LO bounds    x[10]     0
 PL bounds    x[10]
 LO bounds    x[11]     0
 PL bounds    x[11]
 LO bounds    x[12]     0
 PL bounds    x[12]
 LO bounds    x[13]     0
 PL bounds    x[13]
 LO bounds    x[14]     0
 PL bounds    x[14]
 LO bounds    x[15]     0
 PL bounds    x[15]
 LO bounds    x[16]     0
 PL bounds    x[16]
 LO bounds    x[17]     0
 PL bounds    x[17]
 LO bounds    x[18]     0
 PL bounds    x[18]
 LO bounds    x[19]     0
 PL bounds    x[19]
 LO bounds    x[20]     0
 PL bounds    x[20]
 LO bounds    x[21]     0
 PL bounds    x[21]
 LO bounds    x[22]     0
 PL bounds    x[22]
 LO bounds    x[23]     0
 PL bounds    x[23]
 LO bounds    x[24]     0
 PL bounds    x[24]
 LO bounds    x[25]     0
 PL bounds    x[25]
 LO bounds    x[26]     0
 PL bounds    x[26]
 LO bounds    x[27]     0
 PL bounds    x[27]
 LO bounds    x[28]     0
 PL bounds    x[28]
 LO bounds    x[29]     0
 PL bounds    x[29]
 LO bounds    x[30]     0
 PL bounds    x[30]
 LO bounds    x[31]     0
 PL bounds    x[31]
 LO bounds    x[32]     0
 PL bounds    x[32]
 LO bounds    x[33]     0
 PL bounds    x[33]
 LO bounds    x[34]     0
 PL bounds    x[34]
 LO bounds    x[35]     0
 PL bounds    x[35]
 LO bounds    x[36]     0
 PL bounds    x[36]
 LO bounds    x[37]     0
 PL bounds    x[37]
 LO bounds    x[38]     0
 PL bounds    x[38]
 LO bounds    x[39]     0
 PL bounds    x[39]
 LO bounds    x[40]     0
 PL bounds    x[40]
 LO bounds    x[41]     0
 PL bounds    x[41]
 LO bounds    x[42]     0
 PL bounds    x[42]
 LO bounds    x[43]     0
 PL bounds    x[43]
 LO bounds    x[44]     0
 PL bounds    x[44]
 LO bounds    x[45]     0
 PL bounds    x[45]
 LO bounds    x[46]     0
 PL bounds    x[46]
 LO bounds    x[47]     0
 PL bounds    x[47]
 LO bounds    x[48]     0
 PL bounds    x[48]
 LO bounds    x[49]     0
 PL bounds    x[49]
 LO bounds    x[50]     0
 PL bounds    x[50]
ENDATA
